NAME: PointSet_Angle_25_1
TYPE: TSP
COMMENT: Points chosen discrete uniformly at random out of ${0, \ldots, 500}^2$.
DIMENSION: 25
EDGE_WEIGHT_TYPE: EUC_2D
NODE_COORD_SECTION
1 196 264
2 321 444
3 87 1
4 485 145
5 448 133
6 429 237
7 465 288
8 223 302
9 125 268
10 268 37
11 345 291
12 29 17
13 461 383
14 369 145
15 24 182
16 256 220
17 192 323
18 164 25
19 324 148
20 171 271
21 27 346
22 255 239
23 381 224
24 40 5
25 492 54
EOF
